p cnf 100 30
x -1 -2 -3 -5 -7 -8 -10 11 -12 -13 14 16 21 -23 24 25 -30 -32 -36 41 45 -47 48 -49 -51 -54 -55 -58 59 60 -61 65 67 -68 69 -70 -72 74 -75 79 80 82 83 84 -87 89 -90 94 -97 -99 0
x 4 -5 -9 -13 15 16 -19 21 -23 -24 26 27 30 32 38 -41 -42 44 -45 -46 -48 -49 50 -53 -55 58 -59 -61 -62 65 67 -69 70 -71 76 -78 -81 83 -84 86 89 -90 91 -92 -93 -94 0
x 1 3 -5 6 7 -8 -9 -10 15 17 -20 -21 -23 -27 28 -29 -30 -31 -32 33 -34 -35 37 -40 -42 -44 47 48 -49 -51 -52 53 54 -55 -56 57 58 -59 -61 -62 63 -64 68 -69 70 -72 79 80 -84 89 -91 92 -93 94 95 -96 97 -98 99 -100 0
x -1 -3 -4 -7 9 -10 13 14 -15 -16 17 -18 20 -21 -22 23 24 -31 -32 34 35 -36 -37 -38 -40 -41 45 -46 -49 52 54 -55 -58 60 61 63 65 66 -69 70 -71 -72 73 75 77 78 -81 -83 84 -85 -87 88 89 90 -91 -94 95 -97 98 -100 0
x -2 -8 -9 16 -17 18 19 22 24 26 -27 -28 29 -32 34 35 -36 -40 42 44 -46 -47 -48 -50 53 54 56 57 -62 63 64 68 75 -77 79 -81 85 -87 -88 -92 96 97 -98 100 0
x 1 -3 -4 5 -6 7 -8 14 17 -18 -22 -23 -26 27 -29 30 31 32 37 -41 -42 43 -44 -47 -48 -52 53 55 57 59 -60 61 65 -68 69 70 71 73 77 -80 82 83 85 88 90 -92 97 -99 0
x -1 3 9 -11 13 -20 21 23 24 -25 26 28 29 30 33 -34 35 -36 37 -38 39 41 45 48 50 -51 52 54 55 56 57 59 61 62 -66 69 -71 72 78 -80 83 -84 -85 86 -87 93 94 -95 -96 100 0
x 1 2 4 6 -7 -8 9 10 -12 13 18 -19 -20 23 24 28 29 31 -32 -33 -34 -36 -37 -38 39 42 43 -48 -52 -53 -56 57 -58 -59 63 -66 -68 -74 -75 -76 79 80 -82 86 87 89 -90 -91 -92 -93 -95 -99 -100 0
x -1 2 -3 -4 -6 -12 -14 15 -16 -19 20 -21 -25 -27 -28 -29 -32 -33 -37 38 -43 44 -47 48 -49 -50 51 -53 55 -61 64 65 70 -71 73 74 75 77 80 82 84 -85 -86 -87 -88 90 -91 92 95 96 97 -98 100 0
x 1 -3 4 -8 11 17 20 -21 22 26 27 28 29 34 -36 37 -38 41 -43 -44 -45 46 -47 -49 -51 52 53 -55 56 -57 58 60 63 66 67 -70 72 -76 79 -80 -81 82 83 84 -86 87 90 91 -92 -93 -95 96 -98 0
x -1 2 -3 4 -5 -6 -8 -10 12 -13 14 15 -19 20 21 23 -25 -26 29 30 32 33 -34 -35 36 -37 40 42 -43 -44 -51 -52 -54 57 59 -64 65 -66 67 68 69 -73 75 77 78 -81 82 84 85 86 -88 89 -91 92 93 94 95 96 97 -98 0
x 1 2 5 -6 -7 -9 10 14 17 18 -20 21 -22 24 25 29 30 31 32 -34 -41 -42 -43 44 -45 47 -49 -50 51 52 53 -54 -55 -57 59 60 -61 -62 65 66 -68 69 -70 75 80 81 -83 84 -86 94 99 0
x -3 4 -7 -10 -11 -12 -16 -17 21 -22 -24 26 28 29 32 -36 -39 40 42 -44 45 46 47 -49 -50 53 -55 -60 -66 68 69 -70 -71 -72 78 -80 -86 -88 -91 92 -93 -95 97 99 0
x -4 -5 10 -11 12 14 15 16 -17 -19 20 23 24 -28 36 38 43 44 45 -46 47 50 52 -57 -58 63 64 67 -69 -70 -72 -73 -74 75 -76 -78 -80 81 -84 85 86 -87 88 92 -94 95 96 97 100 0
x -1 -3 -6 -8 9 10 -11 -12 -14 -16 -17 -18 -19 -21 22 23 31 34 -35 -37 -38 47 50 51 53 59 -61 63 65 66 -68 69 70 -74 -75 -76 77 80 -83 84 86 88 96 -97 -99 -100 0
x -1 2 -4 5 7 8 -13 -18 21 23 -24 27 28 29 31 -33 34 35 -36 -37 38 41 -43 45 46 49 -50 -52 53 55 57 -59 60 -62 -67 -68 69 -70 -71 72 73 75 -78 79 82 85 -86 87 -92 94 -99 100 0
x 2 4 6 -8 -9 -12 -13 14 -16 17 20 -22 23 24 -25 -26 31 32 36 -37 -38 -40 41 46 -48 -50 -52 -56 -60 -63 66 -67 -68 -69 71 -72 -74 75 -78 -79 80 -84 85 89 90 91 -92 96 -97 -100 0
x -2 -4 -7 9 10 -11 12 16 17 18 19 21 23 -25 27 28 -29 -31 34 -35 -36 -38 -39 43 -46 47 -48 -49 -50 -52 55 56 -61 -64 69 70 -72 80 82 -86 -91 92 96 -98 99 -100 0
x -2 5 6 7 8 18 -19 22 26 27 28 -29 32 -33 42 43 45 -46 -50 -54 55 -56 60 -61 62 -67 -68 70 73 76 85 -86 -87 91 -92 -95 -96 97 -99 0
x -1 -2 -5 6 9 -10 12 -13 14 17 -20 -21 -22 24 -25 27 30 31 -33 -34 -35 -36 -39 -40 41 44 45 48 50 -52 -56 -64 -65 66 -67 72 73 76 78 86 -89 90 -91 92 -93 -94 95 -96 98 0
x -1 -2 3 4 -5 -7 8 -10 11 12 -13 15 -16 -17 18 -25 26 27 -28 31 32 34 35 -37 39 -40 43 -44 45 46 51 -52 -54 55 57 -62 -63 -67 -71 -73 -78 -79 80 -81 -82 -84 -85 -86 -87 -88 -90 -91 -94 -95 96 -98 0
x -2 -5 -8 9 10 14 16 20 21 -22 24 26 -27 28 29 -31 32 -33 -36 -39 -40 -41 42 44 -47 49 55 -57 -60 -62 64 -67 -69 -70 -71 -76 82 83 84 -86 -89 91 -92 -93 -97 99 0
x -2 7 9 13 -16 -17 19 20 -21 -23 24 -25 26 -29 30 -32 34 -35 -38 40 -41 -46 48 49 50 54 -55 -56 -57 -58 59 -60 61 -62 -64 65 -69 71 -72 73 74 75 -76 -78 -79 80 81 82 -83 86 87 90 92 -93 94 -97 100 0
x 1 -2 -3 5 6 9 -10 11 -12 -13 16 -17 22 -24 -25 27 31 35 36 37 41 -43 45 -47 -49 -52 -56 -59 -60 61 -62 -63 -66 -67 -68 -70 71 -73 74 -75 76 -79 80 81 85 86 88 90 91 92 94 96 97 98 0
x 2 -4 6 7 -8 -9 11 -12 -14 15 -17 -21 22 -25 26 28 -31 -34 35 37 49 51 -53 55 57 58 61 -65 -69 70 71 -76 -79 82 85 86 89 -91 -92 94 95 96 97 99 100 0
x 1 -2 -3 5 -6 9 10 11 12 -13 14 -15 17 -18 -20 -22 -24 25 26 -27 28 33 35 -36 37 -38 39 -40 44 -46 50 55 -59 60 61 -62 -63 68 -70 -71 73 80 -81 82 -86 92 -93 -94 96 -100 0
x -2 3 4 5 -7 8 -9 -11 12 -14 15 17 -18 19 20 21 22 -26 -27 -29 33 -34 35 -37 -39 44 -46 -51 -52 53 -54 -57 -58 -60 -61 -62 -67 68 69 72 -76 78 80 81 82 83 85 86 -87 88 -93 97 0
x 1 2 -6 -8 11 12 13 14 16 17 -19 20 -24 -30 -31 34 -35 -43 -45 -47 -50 -54 -58 61 -65 71 79 -80 -87 88 90 93 94 -95 -97 0
x -1 3 -5 -12 -13 15 -16 -21 24 25 -26 -28 -30 31 -34 -38 39 -42 43 -44 -45 49 -52 -53 -56 -60 62 -65 67 -68 69 70 -72 -73 -74 80 -81 85 86 -88 -89 -90 91 -93 -94 95 97 -98 99 100 0
x 2 3 7 9 10 -11 13 14 -15 -16 17 -18 22 -29 31 32 34 35 36 -37 -46 -51 -53 54 55 -57 -59 62 -63 -64 -65 -67 -69 72 -75 77 -80 81 -83 85 87 88 89 -92 -98 -99 100 0
g -20